c Generated map
c Size: 13 * 13, weights in range: 1 to 10, walls: True, with ratio 0.1
c dim 3 of 4
c
p sp 169 255
c graph contains 169 nodes and 255 arcs
c
a 1 14 7
a 14 1 7
a 1 2 1
a 2 1 1
a 2 15 5
a 15 2 5
a 2 3 3
a 3 2 3
a 3 16 9
a 16 3 9
a 3 4 2
a 4 3 2
a 4 17 8
a 17 4 8
a 4 5 10
a 5 4 10
a 5 18 6
a 18 5 6
a 5 6 5
a 6 5 5
a 6 19 8
a 19 6 8
a 6 7 3
a 7 6 3
a 7 20 1
a 20 7 1
a 7 8 5
a 8 7 5
a 8 21 8
a 21 8 8
a 8 9 2
a 9 8 2
a 9 22 9
a 22 9 9
a 9 10 3
a 10 9 3
a 10 23 8
a 23 10 8
a 12 25 8
a 25 12 8
a 12 13 8
a 13 12 8
a 14 27 10
a 27 14 10
a 14 15 9
a 15 14 9
a 15 28 3
a 28 15 3
a 15 16 7
a 16 15 7
a 16 17 8
a 17 16 8
a 17 18 5
a 18 17 5
a 18 31 6
a 31 18 6
a 18 19 2
a 19 18 2
a 19 32 8
a 32 19 8
a 19 20 6
a 20 19 6
a 20 33 8
a 33 20 8
a 20 21 1
a 21 20 1
a 21 34 1
a 34 21 1
a 21 22 4
a 22 21 4
a 22 35 8
a 35 22 8
a 22 23 3
a 23 22 3
a 23 36 1
a 36 23 1
a 23 24 6
a 24 23 6
a 24 37 6
a 37 24 6
a 24 25 4
a 25 24 4
a 25 38 2
a 38 25 2
a 27 40 5
a 40 27 5
a 27 28 9
a 28 27 9
a 28 41 6
a 41 28 6
a 31 44 9
a 44 31 9
a 31 32 1
a 32 31 1
a 32 45 3
a 45 32 3
a 32 33 6
a 33 32 6
a 33 46 6
a 46 33 6
a 33 34 7
a 34 33 7
a 34 47 10
a 47 34 10
a 34 35 7
a 35 34 7
a 35 48 8
a 48 35 8
a 35 36 4
a 36 35 4
a 36 49 6
a 49 36 6
a 36 37 9
a 37 36 9
a 37 50 5
a 50 37 5
a 37 38 10
a 38 37 10
a 38 51 5
a 51 38 5
a 38 39 7
a 39 38 7
a 39 52 8
a 52 39 8
a 40 53 1
a 53 40 1
a 40 41 4
a 41 40 4
a 41 54 2
a 54 41 2
a 43 56 2
a 56 43 2
a 43 44 8
a 44 43 8
a 44 57 10
a 57 44 10
a 44 45 4
a 45 44 4
a 45 58 6
a 58 45 6
a 45 46 9
a 46 45 9
a 46 59 10
a 59 46 10
a 46 47 1
a 47 46 1
a 47 60 8
a 60 47 8
a 47 48 8
a 48 47 8
a 48 61 6
a 61 48 6
a 48 49 6
a 49 48 6
a 49 62 4
a 62 49 4
a 49 50 7
a 50 49 7
a 50 63 10
a 63 50 10
a 50 51 5
a 51 50 5
a 51 64 2
a 64 51 2
a 51 52 10
a 52 51 10
a 52 65 8
a 65 52 8
a 53 66 8
a 66 53 8
a 53 54 4
a 54 53 4
a 54 67 10
a 67 54 10
a 54 55 4
a 55 54 4
a 55 68 3
a 68 55 3
a 55 56 6
a 56 55 6
a 56 69 3
a 69 56 3
a 56 57 10
a 57 56 10
a 57 70 8
a 70 57 8
a 57 58 7
a 58 57 7
a 58 71 9
a 71 58 9
a 58 59 1
a 59 58 1
a 59 72 10
a 72 59 10
a 59 60 2
a 60 59 2
a 60 73 6
a 73 60 6
a 60 61 4
a 61 60 4
a 61 74 8
a 74 61 8
a 61 62 2
a 62 61 2
a 62 75 3
a 75 62 3
a 62 63 1
a 63 62 1
a 63 76 3
a 76 63 3
a 63 64 4
a 64 63 4
a 64 77 9
a 77 64 9
a 64 65 4
a 65 64 4
a 65 78 5
a 78 65 5
a 66 79 9
a 79 66 9
a 66 67 7
a 67 66 7
a 67 68 1
a 68 67 1
a 68 81 4
a 81 68 4
a 68 69 9
a 69 68 9
a 69 82 5
a 82 69 5
a 69 70 6
a 70 69 6
a 70 83 6
a 83 70 6
a 70 71 2
a 71 70 2
a 71 84 5
a 84 71 5
a 71 72 5
a 72 71 5
a 72 85 6
a 85 72 6
a 72 73 10
a 73 72 10
a 73 74 6
a 74 73 6
a 74 87 9
a 87 74 9
a 74 75 8
a 75 74 8
a 75 88 2
a 88 75 2
a 75 76 4
a 76 75 4
a 76 89 9
a 89 76 9
a 76 77 8
a 77 76 8
a 77 90 5
a 90 77 5
a 77 78 6
a 78 77 6
a 78 91 9
a 91 78 9
a 79 92 6
a 92 79 6
a 81 94 1
a 94 81 1
a 81 82 8
a 82 81 8
a 82 83 10
a 83 82 10
a 83 96 10
a 96 83 10
a 83 84 2
a 84 83 2
a 84 97 2
a 97 84 2
a 84 85 7
a 85 84 7
a 85 98 9
a 98 85 9
a 87 100 5
a 100 87 5
a 87 88 9
a 88 87 9
a 88 101 3
a 101 88 3
a 88 89 4
a 89 88 4
a 89 102 2
a 102 89 2
a 89 90 5
a 90 89 5
a 90 91 5
a 91 90 5
a 91 104 9
a 104 91 9
a 92 105 4
a 105 92 4
a 92 93 7
a 93 92 7
a 93 106 5
a 106 93 5
a 93 94 7
a 94 93 7
a 94 107 3
a 107 94 3
a 96 109 8
a 109 96 8
a 96 97 5
a 97 96 5
a 97 110 6
a 110 97 6
a 97 98 10
a 98 97 10
a 98 111 9
a 111 98 9
a 98 99 5
a 99 98 5
a 99 112 7
a 112 99 7
a 99 100 2
a 100 99 2
a 100 113 3
a 113 100 3
a 100 101 8
a 101 100 8
a 101 102 8
a 102 101 8
a 102 115 5
a 115 102 5
a 104 117 5
a 117 104 5
a 105 106 4
a 106 105 4
a 106 107 5
a 107 106 5
a 107 120 3
a 120 107 3
a 107 108 7
a 108 107 7
a 108 121 8
a 121 108 8
a 108 109 10
a 109 108 10
a 109 122 3
a 122 109 3
a 109 110 9
a 110 109 9
a 110 123 7
a 123 110 7
a 110 111 3
a 111 110 3
a 111 124 10
a 124 111 10
a 111 112 2
a 112 111 2
a 112 125 4
a 125 112 4
a 112 113 4
a 113 112 4
a 113 126 10
a 126 113 10
a 115 128 3
a 128 115 3
a 115 116 6
a 116 115 6
a 116 129 5
a 129 116 5
a 116 117 2
a 117 116 2
a 117 130 3
a 130 117 3
a 120 133 10
a 133 120 10
a 120 121 6
a 121 120 6
a 121 134 1
a 134 121 1
a 121 122 1
a 122 121 1
a 122 135 8
a 135 122 8
a 122 123 7
a 123 122 7
a 123 136 9
a 136 123 9
a 123 124 9
a 124 123 9
a 124 137 4
a 137 124 4
a 124 125 6
a 125 124 6
a 125 138 7
a 138 125 7
a 125 126 9
a 126 125 9
a 126 139 1
a 139 126 1
a 126 127 6
a 127 126 6
a 127 140 7
a 140 127 7
a 127 128 10
a 128 127 10
a 128 141 2
a 141 128 2
a 128 129 2
a 129 128 2
a 129 142 1
a 142 129 1
a 129 130 7
a 130 129 7
a 130 143 7
a 143 130 7
a 131 144 4
a 144 131 4
a 131 132 10
a 132 131 10
a 132 145 1
a 145 132 1
a 132 133 8
a 133 132 8
a 133 146 5
a 146 133 5
a 133 134 5
a 134 133 5
a 134 147 10
a 147 134 10
a 134 135 5
a 135 134 5
a 135 148 2
a 148 135 2
a 135 136 8
a 136 135 8
a 136 137 2
a 137 136 2
a 137 150 1
a 150 137 1
a 137 138 3
a 138 137 3
a 138 139 2
a 139 138 2
a 139 152 3
a 152 139 3
a 139 140 10
a 140 139 10
a 140 153 2
a 153 140 2
a 140 141 2
a 141 140 2
a 141 154 2
a 154 141 2
a 141 142 2
a 142 141 2
a 142 155 8
a 155 142 8
a 142 143 2
a 143 142 2
a 143 156 9
a 156 143 9
a 144 145 1
a 145 144 1
a 145 158 4
a 158 145 4
a 145 146 7
a 146 145 7
a 146 159 4
a 159 146 4
a 146 147 7
a 147 146 7
a 147 160 10
a 160 147 10
a 147 148 9
a 148 147 9
a 148 161 6
a 161 148 6
a 150 163 7
a 163 150 7
a 152 153 3
a 153 152 3
a 153 154 5
a 154 153 5
a 154 167 6
a 167 154 6
a 154 155 6
a 155 154 6
a 155 168 7
a 168 155 7
a 155 156 9
a 156 155 9
a 156 169 3
a 169 156 3
a 158 159 3
a 159 158 3
a 159 160 9
a 160 159 9
a 160 161 1
a 161 160 1
a 161 162 4
a 162 161 4
a 162 163 5
a 163 162 5
a 163 164 1
a 164 163 1
a 167 168 4
a 168 167 4
a 168 169 3
a 169 168 3
